
Gurobi 8.1.1 (mac64, Python) logging started Mon Jun 10 10:19:00 2019

Academic license - for non-commercial use only
Optimize a model with 4 rows, 8 columns and 4 nonzeros
Variable types: 4 continuous, 4 integer (4 binary)
Coefficient statistics:
  Matrix range     [3e+00, 5e+00]
  Objective range  [1e+00, 7e+00]
  Bounds range     [1e+00, 1e+00]
  RHS range        [1e+00, 1e+00]
Found heuristic solution: objective 12.6138179

Explored 0 nodes (0 simplex iterations) in 0.04 seconds
Thread count was 1 (of 4 available processors)

Solution count 1: 12.6138 

Optimal solution found (tolerance 1.00e-04)
Best objective 1.261381787287e+01, best bound 1.261381787287e+01, gap 0.0000%
Optimize a model with 4 rows, 8 columns and 4 nonzeros
Coefficient statistics:
  Matrix range     [3e+00, 5e+00]
  Objective range  [1e+00, 7e+00]
  Bounds range     [0e+00, 0e+00]
  RHS range        [1e+00, 1e+00]
Presolve time: 0.03s

Solved in 0 iterations and 0.03 seconds
Infeasible or unbounded model
Optimize a model with 4 rows, 8 columns and 4 nonzeros
Coefficient statistics:
  Matrix range     [3e+00, 5e+00]
  Objective range  [1e+00, 7e+00]
  Bounds range     [0e+00, 0e+00]
  RHS range        [1e+00, 1e+00]
Presolve time: 0.02s

Solved in 0 iterations and 0.02 seconds
Infeasible or unbounded model
Optimize a model with 4 rows, 8 columns and 4 nonzeros
Variable types: 4 continuous, 4 integer (4 binary)
Coefficient statistics:
  Matrix range     [3e+00, 5e+00]
  Objective range  [1e+00, 7e+00]
  Bounds range     [1e+00, 1e+00]
  RHS range        [1e+00, 1e+00]
Found heuristic solution: objective 12.6138179

Explored 0 nodes (0 simplex iterations) in 0.02 seconds
Thread count was 1 (of 4 available processors)

Solution count 1: 12.6138 

Optimal solution found (tolerance 1.00e-04)
Best objective 1.261381787287e+01, best bound 1.261381787287e+01, gap 0.0000%
Optimize a model with 4 rows, 8 columns and 4 nonzeros
Coefficient statistics:
  Matrix range     [3e+00, 5e+00]
  Objective range  [1e+00, 7e+00]
  Bounds range     [0e+00, 0e+00]
  RHS range        [1e+00, 1e+00]
Presolve time: 0.01s

Solved in 0 iterations and 0.02 seconds
Infeasible or unbounded model
Optimize a model with 4 rows, 8 columns and 4 nonzeros
Coefficient statistics:
  Matrix range     [3e+00, 5e+00]
  Objective range  [1e+00, 7e+00]
  Bounds range     [0e+00, 0e+00]
  RHS range        [1e+00, 1e+00]
Presolve time: 0.01s

Solved in 0 iterations and 0.01 seconds
Infeasible or unbounded model
Optimize a model with 4 rows, 8 columns and 4 nonzeros
Coefficient statistics:
  Matrix range     [3e+00, 5e+00]
  Objective range  [1e+00, 7e+00]
  Bounds range     [1e+00, 1e+00]
  RHS range        [1e+00, 1e+00]
Presolve time: 0.01s

Solved in 0 iterations and 0.01 seconds
Infeasible or unbounded model
Optimize a model with 4 rows, 8 columns and 4 nonzeros
Coefficient statistics:
  Matrix range     [3e+00, 5e+00]
  Objective range  [1e+00, 7e+00]
  Bounds range     [0e+00, 0e+00]
  RHS range        [1e+00, 1e+00]
Presolve time: 0.01s

Solved in 0 iterations and 0.01 seconds
Infeasible or unbounded model
Optimize a model with 4 rows, 24 columns and 4 nonzeros
Coefficient statistics:
  Matrix range     [3e+00, 5e+00]
  Objective range  [1e+00, 9e+00]
  Bounds range     [0e+00, 0e+00]
  RHS range        [1e+00, 1e+00]
Presolve time: 0.01s

Solved in 0 iterations and 0.01 seconds
Infeasible or unbounded model
Optimize a model with 4 rows, 12 columns and 4 nonzeros
Coefficient statistics:
  Matrix range     [3e+00, 5e+00]
  Objective range  [1e+00, 9e+00]
  Bounds range     [0e+00, 0e+00]
  RHS range        [1e+00, 1e+00]
Presolve removed 0 rows and 2 columns
Presolve time: 0.02s

Solved in 0 iterations and 0.02 seconds
Infeasible or unbounded model
Optimize a model with 4 rows, 12 columns and 8 nonzeros
Coefficient statistics:
  Matrix range     [1e+00, 1e+00]
  Objective range  [1e+00, 9e+00]
  Bounds range     [0e+00, 0e+00]
  RHS range        [1e+00, 1e+00]
Presolve removed 0 rows and 1 columns
Presolve time: 0.02s

Solved in 0 iterations and 0.02 seconds
Infeasible or unbounded model
Optimize a model with 4 rows, 12 columns and 0 nonzeros
Coefficient statistics:
  Matrix range     [0e+00, 0e+00]
  Objective range  [1e+00, 9e+00]
  Bounds range     [0e+00, 0e+00]
  RHS range        [1e+00, 1e+00]
Presolve time: 0.01s

Solved in 0 iterations and 0.02 seconds
Infeasible or unbounded model
Optimize a model with 4 rows, 12 columns and 0 nonzeros
Coefficient statistics:
  Matrix range     [0e+00, 0e+00]
  Objective range  [1e+00, 9e+00]
  Bounds range     [0e+00, 0e+00]
  RHS range        [1e+00, 1e+00]
Presolve time: 0.02s

Solved in 0 iterations and 0.02 seconds
Infeasible or unbounded model
Optimize a model with 4 rows, 12 columns and 0 nonzeros
Coefficient statistics:
  Matrix range     [0e+00, 0e+00]
  Objective range  [1e+00, 9e+00]
  Bounds range     [0e+00, 0e+00]
  RHS range        [1e+00, 1e+00]
Presolve time: 0.02s

Solved in 0 iterations and 0.02 seconds
Infeasible or unbounded model
Optimize a model with 4 rows, 12 columns and 0 nonzeros
Coefficient statistics:
  Matrix range     [0e+00, 0e+00]
  Objective range  [1e+00, 9e+00]
  Bounds range     [0e+00, 0e+00]
  RHS range        [1e+00, 1e+00]
Presolve time: 0.02s

Solved in 0 iterations and 0.02 seconds
Infeasible or unbounded model
Optimize a model with 4 rows, 12 columns and 4 nonzeros
Coefficient statistics:
  Matrix range     [3e+00, 6e+00]
  Objective range  [1e+00, 9e+00]
  Bounds range     [0e+00, 0e+00]
  RHS range        [1e+00, 1e+00]
Presolve time: 0.01s

Solved in 0 iterations and 0.01 seconds
Infeasible or unbounded model
Optimize a model with 4 rows, 12 columns and 16 nonzeros
Coefficient statistics:
  Matrix range     [1e+00, 2e+00]
  Objective range  [1e+00, 9e+00]
  Bounds range     [0e+00, 0e+00]
  RHS range        [1e+00, 1e+00]
Presolve removed 4 rows and 12 columns
Presolve time: 0.02s
Presolve: All rows and columns removed
Iteration    Objective       Primal Inf.    Dual Inf.      Time
       0    1.5670494e+01   0.000000e+00   0.000000e+00      0s

Solved in 0 iterations and 0.03 seconds
Optimal objective  1.567049351e+01
Optimize a model with 4 rows, 12 columns and 16 nonzeros
Coefficient statistics:
  Matrix range     [1e+00, 2e+00]
  Objective range  [1e+00, 9e+00]
  Bounds range     [0e+00, 0e+00]
  RHS range        [1e+00, 1e+00]
Presolve removed 4 rows and 12 columns
Presolve time: 0.01s
Presolve: All rows and columns removed
Iteration    Objective       Primal Inf.    Dual Inf.      Time
       0    1.5670494e+01   0.000000e+00   0.000000e+00      0s

Solved in 0 iterations and 0.02 seconds
Optimal objective  1.567049351e+01
Optimize a model with 10 rows, 4 columns and 16 nonzeros
Coefficient statistics:
  Matrix range     [1e+00, 2e+00]
  Objective range  [1e+00, 1e+00]
  Bounds range     [0e+00, 0e+00]
  RHS range        [1e+00, 9e+00]
Presolve time: 0.01s

Solved in 0 iterations and 0.02 seconds
Infeasible or unbounded model
Optimize a model with 10 rows, 4 columns and 16 nonzeros
Coefficient statistics:
  Matrix range     [1e+00, 2e+00]
  Objective range  [1e+00, 1e+00]
  Bounds range     [0e+00, 0e+00]
  RHS range        [1e+00, 9e+00]
Presolve time: 0.02s

Solved in 0 iterations and 0.02 seconds
Infeasible or unbounded model
Optimize a model with 10 rows, 4 columns and 16 nonzeros
Coefficient statistics:
  Matrix range     [1e+00, 2e+00]
  Objective range  [0e+00, 0e+00]
  Bounds range     [0e+00, 0e+00]
  RHS range        [1e+00, 9e+00]
Presolve removed 10 rows and 4 columns
Presolve time: 0.01s
Presolve: All rows and columns removed
Iteration    Objective       Primal Inf.    Dual Inf.      Time
       0    0.0000000e+00   0.000000e+00   0.000000e+00      0s

Solved in 0 iterations and 0.02 seconds
Optimal objective  0.000000000e+00
Optimize a model with 10 rows, 4 columns and 16 nonzeros
Coefficient statistics:
  Matrix range     [1e+00, 2e+00]
  Objective range  [1e+00, 1e+00]
  Bounds range     [0e+00, 0e+00]
  RHS range        [1e+00, 9e+00]
Presolve removed 8 rows and 1 columns
Presolve time: 0.01s
Presolved: 2 rows, 3 columns, 4 nonzeros

Iteration    Objective       Primal Inf.    Dual Inf.      Time
       0    1.5670494e+01   0.000000e+00   0.000000e+00      0s
       0    1.5670494e+01   0.000000e+00   0.000000e+00      0s

Solved in 0 iterations and 0.03 seconds
Optimal objective  1.567049351e+01
Optimize a model with 10 rows, 4 columns and 16 nonzeros
Coefficient statistics:
  Matrix range     [1e+00, 2e+00]
  Objective range  [1e+00, 1e+00]
  Bounds range     [0e+00, 0e+00]
  RHS range        [1e+00, 9e+00]
Presolve removed 8 rows and 1 columns
Presolve time: 0.01s
Presolved: 2 rows, 3 columns, 4 nonzeros

Iteration    Objective       Primal Inf.    Dual Inf.      Time
       0    1.5670494e+01   0.000000e+00   0.000000e+00      0s
       0    1.5670494e+01   0.000000e+00   0.000000e+00      0s

Solved in 0 iterations and 0.02 seconds
Optimal objective  1.567049351e+01

Gurobi 8.1.1 (mac64, Python) logging started Mon Jun 10 13:15:20 2019

Academic license - for non-commercial use only
Optimize a model with 40 rows, 840 columns and 1599 nonzeros
Coefficient statistics:
  Matrix range     [1e+00, 2e+00]
  Objective range  [1e-03, 1e+01]
  Bounds range     [0e+00, 0e+00]
  RHS range        [1e+00, 1e+00]
Presolve time: 0.01s

Solved in 0 iterations and 0.01 seconds
Infeasible or unbounded model
Optimize a model with 40 rows, 840 columns and 1599 nonzeros
Coefficient statistics:
  Matrix range     [1e+00, 2e+00]
  Objective range  [1e-03, 1e+01]
  Bounds range     [0e+00, 0e+00]
  RHS range        [1e+00, 1e+00]
Presolve time: 0.01s

Solved in 0 iterations and 0.01 seconds
Infeasible or unbounded model
Optimize a model with 4 rows, 12 columns and 15 nonzeros
Coefficient statistics:
  Matrix range     [1e+00, 2e+00]
  Objective range  [4e-01, 9e+00]
  Bounds range     [0e+00, 0e+00]
  RHS range        [1e+00, 1e+00]
Presolve time: 0.01s

Solved in 0 iterations and 0.01 seconds
Infeasible or unbounded model
Optimize a model with 4 rows, 12 columns and 15 nonzeros
Coefficient statistics:
  Matrix range     [1e+00, 2e+00]
  Objective range  [4e-01, 9e+00]
  Bounds range     [0e+00, 0e+00]
  RHS range        [1e+00, 1e+00]
Presolve time: 0.02s

Solved in 0 iterations and 0.02 seconds
Infeasible or unbounded model
Optimize a model with 4 rows, 12 columns and 16 nonzeros
Coefficient statistics:
  Matrix range     [1e+00, 2e+00]
  Objective range  [4e-01, 9e+00]
  Bounds range     [0e+00, 0e+00]
  RHS range        [1e+00, 1e+00]
Presolve removed 2 rows and 9 columns
Presolve time: 0.02s
Presolved: 2 rows, 3 columns, 4 nonzeros

Iteration    Objective       Primal Inf.    Dual Inf.      Time
       0    1.1855296e+01   1.000000e+00   0.000000e+00      0s
       1    1.0410203e+01   0.000000e+00   0.000000e+00      0s

Solved in 1 iterations and 0.04 seconds
Optimal objective  1.041020253e+01
Optimize a model with 4 rows, 12 columns and 16 nonzeros
Coefficient statistics:
  Matrix range     [1e+00, 2e+00]
  Objective range  [7e-01, 9e+00]
  Bounds range     [0e+00, 0e+00]
  RHS range        [1e+00, 1e+00]
Presolve removed 4 rows and 12 columns
Presolve time: 0.02s
Presolve: All rows and columns removed
Iteration    Objective       Primal Inf.    Dual Inf.      Time
       0    2.4208482e+01   0.000000e+00   0.000000e+00      0s

Solved in 0 iterations and 0.03 seconds
Optimal objective  2.420848207e+01
Optimize a model with 4 rows, 12 columns and 16 nonzeros
Coefficient statistics:
  Matrix range     [1e+00, 2e+00]
  Objective range  [7e-01, 9e+00]
  Bounds range     [0e+00, 0e+00]
  RHS range        [1e+00, 1e+00]
Presolve removed 4 rows and 12 columns
Presolve time: 0.01s
Presolve: All rows and columns removed
Iteration    Objective       Primal Inf.    Dual Inf.      Time
       0    2.4208482e+01   0.000000e+00   0.000000e+00      0s

Solved in 0 iterations and 0.02 seconds
Optimal objective  2.420848207e+01
Optimize a model with 4 rows, 12 columns and 16 nonzeros
Coefficient statistics:
  Matrix range     [1e+00, 2e+00]
  Objective range  [7e-01, 9e+00]
  Bounds range     [0e+00, 0e+00]
  RHS range        [1e+00, 1e+00]
Presolve removed 4 rows and 12 columns
Presolve time: 0.02s
Presolve: All rows and columns removed
Iteration    Objective       Primal Inf.    Dual Inf.      Time
       0    2.4208482e+01   0.000000e+00   0.000000e+00      0s

Solved in 0 iterations and 0.02 seconds
Optimal objective  2.420848207e+01

Gurobi 8.1.1 (mac64, Python) logging started Mon Jun 10 14:10:12 2019

Academic license - for non-commercial use only

Gurobi 8.1.1 (mac64, Python) logging started Tue Jun 11 09:38:06 2019

Academic license - for non-commercial use only

Gurobi 8.1.1 (mac64, Python) logging started Tue Jun 11 17:05:50 2019

Academic license - for non-commercial use only

Gurobi 8.1.1 (mac64, Python) logging started Wed Jun 12 10:00:58 2019

Academic license - for non-commercial use only

Gurobi 8.1.1 (mac64, Python) logging started Mon Jun 24 13:21:23 2019

Academic license - for non-commercial use only
